175 174 173 108 109 107 542 541 543 544 547 546 545 548 549 560 561 562 563 564 565 566 567 475 476 477 478 479 480 481 482 483 484 485 486 487 535 536 537 539 538 540 176 177 178 187 188 186 182 179 169 180 181 183 185 184 197 198 199 200 201 202 204 203 208 207 206 205 196 195 194 209 210 211 212 213 214 215 216 217 223 224 222 221 220 218 219 193 192 191 190 226 225 189 227 228 229 230 231 533 534 488 489 532 531 530 233 232 234 235 236 237 240 239 238 246 247 245 244 243 242 241 301 302 508 507 506 307 303 304 306 305 318 317 319 320 321 297 298 299 300 257 256 248 249 250 251 252 254 253 255 261 260 259 258 262 263 264 265 266 267 271 272 269 268 270 296 295 294 293 291 292 273 274 275 290 289 288 276 277 278 279 282 281 280 287 286 285 284 283 334 335 336 337 338 339 333 332 331 330 340 341 343 344 345 346 364 363 362 347 348 350 349 358 359 361 360 401 402 403 400 399 398 397 407 408 406 405 404 409 385 383 384 410 411 412 356 357 355 354 353 352 351 415 416 414 413 417 418 419 420 421 422 423 424 425 426 427 428 429 430 432 433 434 435 436 438 437 3 2 1 4 0 5 573 572 571 468 469 470 496 497 464 465 467 466 463 462 461 460 459 458 457 456 455 454 453 452 499 500 501 451 450 449 448 447 446 442 441 440 439 443 444 445 431 382 386 387 388 389 390 381 392 391 393 394 395 396 371 372 370 369 368 367 365 342 366 329 328 327 326 325 324 323 322 373 374 375 376 379 380 378 377 315 314 316 313 312 311 310 309 308 505 504 503 502 498 519 518 520 517 516 515 514 513 509 510 511 512 527 528 529 490 491 492 493 525 526 523 522 521 524 494 495 471 472 473 474 570 569 568 20 19 18 17 8 7 6 9 10 11 16 15 14 13 12 23 21 24 25 26 27 28 29 22 31 30 32 33 34 35 36 37 38 39 42 41 40 556 557 558 559 550 551 101 102 100 99 552 553 554 555 46 45 44 43 47 48 49 54 53 55 56 83 84 51 52 50 91 92 93 97 98 96 95 94 90 85 86 87 89 88 77 78 79 80 81 82 57 58 59 60 61 63 62 64 76 75 74 73 119 118 103 104 105 106 117 121 120 122 123 71 72 65 66 67 68 70 69 124 125 126 127 128 129 130 131 132 133 134 135 136 137 138 139 140 141 151 150 149 152 148 147 142 143 144 146 145 158 157 159 156 155 153 154 165 164 166 167 163 168 162 160 161 113 112 114 116 115 110 111 172 170 171